
Gurobi 10.0.3 (linux64, gurobi_cl) logging started Thu Nov  9 12:54:42 2023

Set parameter Username
Set parameter TimeLimit to value 3600
Set parameter LogFile to value "RCPSP_1427.log"
Set parameter Threads to value 32
Academic license - for non-commercial use only - expires 2024-10-30
Using license file /home/jrivera6/gurobi-licenses/v1003/compute-0-37/gurobi.lic

Gurobi Optimizer version 10.0.3 build v10.0.3rc0 (linux64)
Copyright (c) 2023, Gurobi Optimization, LLC

Read MPS format model from file RCPSP_1427.mps
Reading time = 0.05 seconds
RCPSP_1427: 42975 rows, 17020 columns, 159179 nonzeros

CPU model: Intel(R) Xeon(R) Gold 6242 CPU @ 2.80GHz, instruction set [SSE2|AVX|AVX2|AVX512]
Thread count: 32 physical cores, 32 logical processors, using up to 32 threads

Optimize a model with 42975 rows, 17020 columns and 159179 nonzeros
Model fingerprint: 0x503a4343
Variable types: 92 continuous, 16928 integer (16928 binary)
Coefficient statistics:
  Matrix range     [1e+00, 5e+02]
  Objective range  [1e+00, 1e+00]
  Bounds range     [1e+00, 1e+00]
  RHS range        [1e+00, 5e+02]
Presolve removed 8172 rows and 2201 columns
Presolve time: 3.65s
Presolved: 34803 rows, 14819 columns, 135250 nonzeros
Variable types: 91 continuous, 14728 integer (14728 binary)

Deterministic concurrent LP optimizer: primal and dual simplex (primal and dual model)
Showing first log only...

Root relaxation presolved: 34803 rows, 14819 columns, 135250 nonzeros

Concurrent spin time: 0.16s

Solved with dual simplex (primal model)

Root relaxation: objective 9.400000e+01, 5480 iterations, 1.13 seconds (0.15 work units)

    Nodes    |    Current Node    |     Objective Bounds      |     Work
 Expl Unexpl |  Obj  Depth IntInf | Incumbent    BestBd   Gap | It/Node Time

     0     0   94.00000    0    2          -   94.00000      -     -    7s
     0     0   94.00000    0   59          -   94.00000      -     -   13s
H    0     0                      94.0000000   94.00000  0.00%     -   13s
     0     0   94.00000    0   26   94.00000   94.00000  0.00%     -   13s

Cutting planes:
  Gomory: 2
  Cover: 1
  Implied bound: 3
  MIR: 15
  RLT: 53
  Relax-and-lift: 2

Explored 1 nodes (15115 simplex iterations) in 13.99 seconds (4.74 work units)
Thread count was 32 (of 32 available processors)

Solution count 1: 94 

Optimal solution found (tolerance 1.00e-04)
Best objective 9.400000000000e+01, best bound 9.400000000000e+01, gap 0.0000%

Wrote result file 'RCPSP_1427.sol'

